NAME : A-n20-k2
COMMENT : Example dataset for 20 nodes and 2 vehicles
TYPE : CVRP
DIMENSION : 20
EDGE_WEIGHT_TYPE : EUC_2D
CAPACITY : 150
NODE_COORD_SECTION
1 10 10
2 20 30
3 15 25
4 40 40
5 30 10
6 50 30
7 60 10
8 35 35
9 25 25
10 20 10
11 10 20
12 50 50
13 70 70
14 80 60
15 90 20
16 85 40
17 30 70
18 40 60
19 50 20
20 60 30
DEMAND_SECTION
1 0
2 10
3 15
4 10
5 25
6 20
7 15
8 10
9 5
10 20
11 10
12 15
13 10
14 20
15 30
16 25
17 10
18 15
19 10
20 20
DEPOT_SECTION
1
-1
EOF
